28
10
0 26 13 20 4 8 9 6 17 10 24 7 11 14 18 12 2 21 19 27 23
1 21 16 10 27 17 20 19 2 5 13 11 24 25 7 9 23 22 15 12 4 3 26 14 8
17 4 13 8 6 12 25 3 26 20 2 21 9 18 14 24 5 19 22 23 11 15 0 16 10 7 1
15 22 23 24 19 1 0 13 6 21
27 3 15 19 25 14 7 2 17 1 4 12 0 10 5 22 13 26 8 23 18 20
16 15 2 24 7 27 6 3 11 13
26 16 11 19 14 7 24 18 12 9 17 0 2 5 3 23 15 25 1 20
0 13 12 6 11 26 25 2 22 19 27 4 10 14 5 21 16 17 9 18 23
14 7 17 10 26 15 2 11 13 8 6 12 27 9
17 12 4 7 9 19 11 23 25 22 10 14 18 20 0 5 1
